33755956297066.0
34623328378116.0
34273904132101.0
34219687351149.0
37076369693694.0
33553830871267.0
34299927871983.0
34115498801736.0
35364109296412.0
35187757433415.0
36798215853746.0
34839888138502.0
35879368760564.0
33374981676553.0
35303345431745.0
33628473172092.0
36138308928183.0
34738870307496.0
33073230672108.0
34212961904064.0
35147882182233.0
33701782042802.0
34682441327948.0
32270164389761.0
35734411966102.0
33875219703257.0
34269831551143.0
34585524787886.0
35459819697039.0
34076776434364.0
